
Gurobi 9.5.2 (mac64[arm]) logging started Thu Dec  8 15:23:09 2022

Set parameter LogFile to value "./ccga_results/2022-12-08 15-22-34-404/FMP_[2022-12-08 15:23:09.446]_gurobi_log.txt"

Gurobi 9.5.2 (mac64[arm]) logging started Thu Dec  8 15:23:09 2022

Set parameter LogFile to value "./ccga_results/2022-12-08 15-22-34-404/FMP_[2022-12-08 15:23:09.446]_gurobi_log.txt"
Set parameter TimeLimit to value 180
Gurobi Optimizer version 9.5.2 build v9.5.2rc0 (mac64[arm])
Thread count: 8 physical cores, 8 logical processors, using up to 8 threads
Optimize a model with 3268 rows, 1323 columns and 11586 nonzeros
Model fingerprint: 0x02a258c1
Variable types: 1275 continuous, 48 integer (48 binary)
Coefficient statistics:
  Matrix range     [3e-02, 1e+08]
  Objective range  [1e+00, 1e+00]
  Bounds range     [0e+00, 0e+00]
  RHS range        [1e+00, 1e+08]
Presolve removed 962 rows and 306 columns
Presolve time: 0.02s
Presolved: 2306 rows, 1017 columns, 8165 nonzeros
Variable types: 993 continuous, 24 integer (24 binary)
Found heuristic solution: objective -0.0000000

Root relaxation: objective 3.000000e+02, 1930 iterations, 0.04 seconds (0.07 work units)

    Nodes    |    Current Node    |     Objective Bounds      |     Work
 Expl Unexpl |  Obj  Depth IntInf | Incumbent    BestBd   Gap | It/Node Time

     0     0  300.00000    0    6   -0.00000  300.00000      -     -    0s
     0     0  295.01123    0    7   -0.00000  295.01123      -     -    0s
H    0     0                      41.8678117  295.01123   605%     -    0s
     0     0  205.07167    0    7   41.86781  205.07167   390%     -    0s
     0     0  169.92833    0    8   41.86781  169.92833   306%     -    0s
     0     0  150.00000    0    8   41.86781  150.00000   258%     -    0s
     0     0  140.97616    0   14   41.86781  140.97616   237%     -    0s
     0     0  140.97616    0   14   41.86781  140.97616   237%     -    0s
     0     0  116.12617    0   11   41.86781  116.12617   177%     -    0s
     0     2  116.12617    0   11   41.86781  116.12617   177%     -    0s
  6891  1123     cutoff   13        41.86781   53.83787  28.6%  29.8    5s

Cutting planes:
  Gomory: 1
  Lift-and-project: 7
  MIR: 37
  Flow cover: 7
  RLT: 83
  Relax-and-lift: 22
  PSD: 5

Explored 13542 nodes (373224 simplex iterations) in 8.10 seconds (11.50 work units)
Thread count was 8 (of 8 available processors)

Solution count 2: 41.8678 -0 

Optimal solution found (tolerance 1.00e-03)
Best objective 4.186781171894e+01, best bound 4.186781171894e+01, gap 0.0000%

User-callback calls 29171, time in user-callback 0.01 sec
